certificates/rado_a9_c115_N18.cnf
c Rad2 upper bound instance: x1 + 9*x2 - x3 = 115, interval [1,18]
p cnf 18 72
1 3 13 0
-1 -3 -13 0
1 12 14 0
-1 -12 -14 0
2 4 13 0
-2 -4 -13 0
2 13 14 0
-2 -13 -14 0
3 5 13 0
-3 -5 -13 0
3 14 0
-3 -14 0
4 6 13 0
-4 -6 -13 0
4 14 15 0
-4 -14 -15 0
5 7 13 0
-5 -7 -13 0
5 14 16 0
-5 -14 -16 0
6 8 13 0
-6 -8 -13 0
6 14 17 0
-6 -14 -17 0
7 9 13 0
-7 -9 -13 0
7 14 18 0
-7 -14 -18 0
1 8 12 0
-1 -8 -12 0
8 10 13 0
-8 -10 -13 0
2 9 12 0
-2 -9 -12 0
9 11 13 0
-9 -11 -13 0
3 10 12 0
-3 -10 -12 0
10 12 13 0
-10 -12 -13 0
4 11 12 0
-4 -11 -12 0
11 13 0
-11 -13 0
5 12 0
-5 -12 0
12 13 14 0
-12 -13 -14 0
6 12 13 0
-6 -12 -13 0
13 15 0
-13 -15 0
7 12 14 0
-7 -12 -14 0
13 14 16 0
-13 -14 -16 0
8 12 15 0
-8 -12 -15 0
13 15 17 0
-13 -15 -17 0
9 12 16 0
-9 -12 -16 0
13 16 18 0
-13 -16 -18 0
1 11 17 0
-1 -11 -17 0
10 12 17 0
-10 -12 -17 0
2 11 18 0
-2 -11 -18 0
11 12 18 0
-11 -12 -18 0
