certificates/rado_a9_c115_N18.drat
13 -17 -18 0
-14 -13 0
-13 -18 0
d -16 -13 -18 0
-18 0
-14 0
3 0
7 0
13 0
-11 0
-15 0
-1 0
-5 0
-9 0
2 0
12 0
4 0
17 0
16 0
0
